100
128
62
27
14
7
33
18
25
57
15
61
58
3
34
45
52
4
58
53
21
14
9
46
14
36
53
27
33
41
27
44
32
11
56
20
12
44
28
36
61
30
14
20
33
27
40
11
10
58
44
18
14
20
64
40
24
30
13
34
12
12
16
44
58
25
12
31
7
29
47
17
47
15
53
14
28
40
31
17
19
32
42
15
9
46
32
49
30
19
18
36
42
38
55
34
28
47
64
25
28
64